Traveling Salesman Problem/TSP_generados/Aleatorio1621103392_13.tsp
NAME: Aleatorio1621103392_13.tsp
COMMENT: Randomly generated scenario
TYPE: TSP
DIMENSION: 13
EDGE_WEIGHT_TYPE: ATT
NODE_COORD_SECTION
1 44.62 6.23
2 24.72 44.5
3 33.98 9.1
4 25.96 22.23
5 30.64 10.57
6 29.65 20.84
7 27.69 1.62
8 32.94 4.44
9 33.98 49.7
10 37.82 48.25
11 25.37 3.4
12 15.46 7.88
13 34.66 30.26
