Traveling Salesman Problem/TSP_generados/Aleatorio1621103392_13.opt.tour
NAME: Aleatorio1621103392_13.opt.tour
COMMENT: Optimal solution for Aleatorio1621103392_13 (140.30800384691213)
TYPE: TOUR
DIMENSION: 13
TOUR_SECTION
1 3 5 6 13 10 9 2 4 12 11 7 8
-1
EOF
